CPXPARAM_Read_DataCheck                          1
Found incumbent of value 0.000000 after 0.02 sec. (2.56 ticks)
Tried aggregator 1 time.
MIP Presolve eliminated 1 rows and 0 columns.
MIP Presolve modified 1 coefficients.
Reduced MIP has 10032 rows, 100010 columns, and 490034 nonzeros.
Reduced MIP has 100010 binaries, 0 generals, 0 SOSs, and 0 indicators.
Presolve time = 0.30 sec. (183.70 ticks)
Tried aggregator 1 time.
Reduced MIP has 10032 rows, 100010 columns, and 490034 nonzeros.
Reduced MIP has 100010 binaries, 0 generals, 0 SOSs, and 0 indicators.
Presolve time = 0.38 sec. (208.80 ticks)
Probing time = 0.28 sec. (53.10 ticks)
Clique table members: 345077.
MIP emphasis: balance optimality and feasibility.
MIP search method: dynamic search.
Parallel mode: deterministic, using up to 4 threads.
Root relaxation solution time = 1.44 sec. (903.63 ticks)

        Nodes                                         Cuts/
   Node  Left     Objective  IInf  Best Integer    Best Bound    ItCnt     Gap

*     0+    0                            0.0000   621550.0000              --- 
      0     0   363850.2049    10        0.0000   363850.2049       17     --- 
*     0+    0                       233762.0000   363850.2049            55.65%
      0     0        cutoff         233762.0000   233762.0000       30    0.00%
Elapsed time = 122.72 sec. (44851.12 ticks, tree = 0.01 MB, solutions = 2)

Clique cuts applied:  2608

Root node processing (before b&c):
  Real time             =  122.75 sec. (44857.48 ticks)
Parallel b&c, 4 threads:
  Real time             =    0.00 sec. (0.00 ticks)
  Sync time (average)   =    0.00 sec.
  Wait time (average)   =    0.00 sec.
                          ------------
Total (root+branch&cut) =  122.75 sec. (44857.48 ticks)
